DIMENSION :17
NODE_COORD_SECTION
1 7.8112373237059955 -69.10414578637831
2 2.4380433044430845 31.684478517426328
3 -5.7844272190813655 -12.503412255949172
4 73.41535013324454 -84.1307294290293
5 21.495094814583865 -32.6107507601522
6 -70.99323424909667 6.520212177501293
7 -34.308146836254025 65.11952126962208
8 -88.59942639786702 85.48439519630739
9 -72.98003877013312 80.84963547842275
10 -22.685494018241073 -63.51655609422298
11 91.57351500435132 -40.43999745617499
12 57.948677906047436 -92.88464293133742
13 53.70448260787299 15.53170725146316
14 92.27012007411659 99.68265804666464
15 -39.42443040845125 53.27311701556653
16 83.90363694984975 72.81101765296751
17 -86.75518994755473 -54.532031892402856
EOF
